\ LP format - for model browsing. Use MPS format to capture full model detail.
Minimize
  x_n + x_ph
Subject To
 R0: 5 x_n + 7 x_ph >= 200
 R1: 250 x_n + 300 x_ph <= 9000
Bounds
Generals
 x_n x_ph
End
